94 83 64 72 68 7 
65 44 40 13 16 
86 97 12 78 46 4 70 
71 99 52 87 21 51 
95 33 67 24 18 80 
96 42 43 37 41 47 
59 15 73 55 3 
92 63 89 20 48 91 
98 2 45 1 8 6 5 54 
81 62 50 28 31 29 93 
61 36 84 56 66 
38 74 58 
60 69 22 75 77 
39 79 10 17 100 
14 88 53 9 25 
90 82 57 23 19 49 85 
34 27 26 30 32 
11 35 
76 

